
Value of objective function: 9980

Actual values of the variables:
R0                              0
R1                              0
R3                              1
R4                              0
R5                              0
R6                              2
R7                              0
R9                              0
R10                             0
R11                             0
Rini                            0
Rfim                            0
Tini                            0
T0                              0
T1                              4
T3                             22
T5                             18
T4                              9
T7                              3
T10                             3
T6                              0
T9                             18
T11                            11
Tfim                           23
